db/data/17726974921260214351087361132364610176.z3.out
-------------------
2500.080069029
